Normalized Data/p03_7_normalized_splitx10_0.vrp
NAME:p03_7_NORMALIZED_splitx10_
BEST_KNOWN: 0
COMMENT: 0
DIMENSION: 444
CAPACITY: 1000
EDGE_WEIGHT_FORMAT: FUNCTION
EDGE_WEIGHT_TYPE: EXACT_2D
NODE_COORD_SECTION
1 0.00000 0.00000
2 -29 -8
3 -29 -8
4 -29 -8
5 -29 -8
6 -29 -8
7 -29 -8
8 -21 14
9 -21 14
10 -21 14
11 -21 14
12 -21 14
13 -21 14
14 2 -29
15 2 -29
16 2 -29
17 -4 48
18 -4 48
19 -4 48
20 -4 48
21 -4 48
22 -4 48
23 -4 48
24 32 -49
25 32 -49
26 32 -49
27 32 -49
28 -30 -47
29 -30 -47
30 -30 -47
31 -30 -47
32 -30 -47
33 -30 -47
34 -49 15
35 -49 15
36 -49 15
37 -49 15
38 -49 15
39 12 -30
40 12 -30
41 12 -30
42 12 -30
43 -42 40
44 -42 40
45 -42 40
46 -42 40
47 -42 40
48 15 -13
49 15 -13
50 15 -13
51 15 -13
52 -34 3
53 -34 3
54 -34 3
55 -34 3
56 -34 3
57 6 17
58 6 17
59 -5 -4
60 -5 -4
61 -35 27
62 -35 27
63 3 -9
64 3 -9
65 3 -9
66 3 -9
67 3 -9
68 3 -9
69 48 40
70 48 40
71 48 40
72 -41 -11
73 -41 -11
74 -41 -11
75 -31 28
76 -31 28
77 -31 28
78 -31 28
79 -31 28
80 -47 -24
81 -47 -24
82 -47 -24
83 -47 -24
84 -47 -24
85 0 -40
86 0 -40
87 0 -40
88 0 -40
89 0 -40
90 0 -40
91 0 -40
92 -21 42
93 -21 42
94 -21 42
95 -21 42
96 17 35
97 17 35
98 17 35
99 45 -21
100 45 -21
101 45 -21
102 45 -21
103 45 -21
104 45 -21
105 40 -13
106 40 -13
107 40 -13
108 40 -13
109 40 -13
110 40 -13
111 40 -13
112 -32 49
113 -32 49
114 -32 49
115 -32 49
116 -32 49
117 -32 49
118 32 -41
119 32 -41
120 32 -41
121 32 -41
122 -18 -49
123 -18 -49
124 -18 -49
125 -18 -49
126 -18 -49
127 -34 12
128 -34 12
129 -34 12
130 -43 50
131 -43 50
132 -43 50
133 32 44
134 -8 -25
135 -8 -25
136 -8 -25
137 46 -44
138 46 -44
139 46 -44
140 46 -44
141 -36 36
142 -36 36
143 -36 36
144 47 5
145 47 5
146 47 5
147 47 5
148 47 5
149 47 5
150 5 11
151 5 11
152 5 11
153 5 11
154 5 11
155 5 11
156 -41 22
157 -41 22
158 -41 22
159 32 -4
160 32 -4
161 32 -4
162 32 -4
163 11 -15
164 11 -15
165 11 -15
166 11 -15
167 11 -15
168 11 -15
169 15 47
170 15 47
171 -3 -10
172 -3 -10
173 -3 -10
174 -35 -44
175 -35 -44
176 -35 -44
177 -35 -44
178 -38 26
179 -38 26
180 -38 26
181 14 44
182 14 44
183 14 44
184 -25 -7
185 -25 -7
186 -25 -7
187 -25 -7
188 -25 -7
189 -25 -7
190 13 16
191 13 16
192 13 16
193 13 16
194 13 16
195 -48 48
196 -48 48
197 -48 48
198 -48 48
199 -48 48
200 4 -15
201 4 -15
202 4 -15
203 4 -15
204 4 -15
205 4 -15
206 -6 -50
207 -6 -50
208 -6 -50
209 -6 -50
210 -6 -50
211 17 -42
212 17 -42
213 17 -42
214 17 -42
215 17 -42
216 24 5
217 24 5
218 24 5
219 24 5
220 24 5
221 24 5
222 39 -34
223 39 -34
224 39 -34
225 39 -34
226 39 -34
227 39 -34
228 13 -29
229 13 -29
230 13 -29
231 13 -29
232 13 -29
233 -41 47
234 -41 47
235 -41 47
236 -41 47
237 -41 47
238 -41 47
239 16 39
240 16 39
241 16 39
242 16 39
243 16 39
244 16 39
245 50 -6
246 50 -6
247 50 -6
248 50 -6
249 44 -1
250 44 -1
251 44 -1
252 44 -1
253 -27 33
254 -27 33
255 -27 33
256 -27 33
257 -27 33
258 -27 33
259 -27 33
260 -49 -36
261 -49 -36
262 -49 -36
263 -49 -36
264 -49 -36
265 6 23
266 6 23
267 6 23
268 -31 -9
269 -31 -9
270 -31 -9
271 -31 -9
272 -31 -9
273 12 -38
274 12 -38
275 12 -38
276 -33 17
277 -33 17
278 -33 17
279 -33 17
280 -34 22
281 -34 22
282 -34 22
283 21 47
284 21 47
285 21 47
286 44 0
287 44 0
288 44 0
289 44 0
290 40 -33
291 40 -33
292 36 49
293 36 49
294 36 49
295 36 49
296 36 49
297 36 49
298 -22 -8
299 -22 -8
300 -18 25
301 -18 25
302 -18 25
303 -18 25
304 -34 -14
305 -34 -14
306 -34 -14
307 -34 -14
308 -21 25
309 -21 25
310 -21 25
311 -47 10
312 -47 10
313 -47 10
314 -47 10
315 11 6
316 11 6
317 11 6
318 11 6
319 8 -26
320 8 -26
321 8 -26
322 8 -26
323 8 -26
324 8 -26
325 -46 -28
326 -46 -28
327 -46 -28
328 -46 -28
329 -46 -28
330 -46 -28
331 -42 -17
332 -42 -17
333 -42 -17
334 -42 -17
335 -42 -17
336 -42 -17
337 -42 -17
338 -10 24
339 -10 24
340 34 -14
341 34 -14
342 34 -14
343 34 -14
344 34 -14
345 9 -24
346 9 -24
347 9 -24
348 9 -24
349 -24 17
350 -24 17
351 -24 17
352 -24 17
353 -24 17
354 -29 23
355 -29 23
356 -29 23
357 -29 23
358 -29 23
359 10 22
360 10 22
361 10 22
362 10 22
363 10 22
364 10 22
365 20 -14
366 20 -14
367 20 -14
368 -46 -30
369 -46 -30
370 -46 -30
371 -46 -30
372 13 21
373 13 21
374 13 21
375 13 21
376 50 -17
377 50 -17
378 50 -17
379 32 38
380 32 38
381 32 38
382 32 38
383 -31 -10
384 -31 -10
385 -31 -10
386 -31 -10
387 -31 -10
388 -31 -10
389 49 45
390 49 45
391 49 45
392 49 45
393 49 45
394 -16 49
395 -16 49
396 -16 49
397 10 -8
398 10 -8
399 10 -8
400 10 -8
401 10 -8
402 19 24
403 19 24
404 19 24
405 19 24
406 19 24
407 19 24
408 -11 -49
409 -11 -49
410 -11 -49
411 -41 -44
412 -41 -44
413 -41 -44
414 -41 -44
415 -41 -44
416 -41 -44
417 -41 -44
418 -48 35
419 -48 35
420 -48 35
421 -48 35
422 -48 35
423 -32 7
424 -32 7
425 -32 7
426 -18 3
427 -18 3
428 -18 3
429 -18 39
430 -18 39
431 -18 39
432 -18 39
433 -18 39
434 -22 -9
435 -22 -9
436 -22 -9
437 -22 -9
438 -22 -9
439 -22 -9
440 10 -45
441 10 -45
442 10 -45
443 10 -45
444 10 -45
DEMAND_SECTION
1 0
2 200
3 100
4 10
5 10
6 10
7 10
8 200
9 50
10 10
11 10
12 10
13 10
14 200
15 100
16 10
17 200
18 100
19 50
20 10
21 10
22 10
23 10
24 200
25 50
26 10
27 10
28 200
29 200
30 10
31 10
32 10
33 10
34 200
35 10
36 10
37 10
38 10
39 200
40 200
41 50
42 10
43 200
44 200
45 10
46 10
47 10
48 200
49 100
50 10
51 10
52 100
53 10
54 10
55 10
56 10
57 200
58 10
59 100
60 50
61 200
62 50
63 200
64 200
65 50
66 10
67 10
68 10
69 200
70 200
71 50
72 100
73 10
74 10
75 100
76 10
77 10
78 10
79 10
80 100
81 10
82 10
83 10
84 10
85 200
86 200
87 50
88 10
89 10
90 10
91 10
92 100
93 10
94 10
95 10
96 200
97 50
98 10
99 200
100 100
101 50
102 10
103 10
104 10
105 200
106 100
107 50
108 10
109 10
110 10
111 10
112 200
113 200
114 50
115 10
116 10
117 10
118 100
119 10
120 10
121 10
122 200
123 100
124 50
125 10
126 10
127 200
128 100
129 50
130 200
131 10
132 10
133 200
134 200
135 200
136 10
137 200
138 100
139 50
140 10
141 200
142 50
143 10
144 200
145 200
146 50
147 10
148 10
149 10
150 200
151 100
152 50
153 10
154 10
155 10
156 200
157 50
158 10
159 100
160 50
161 10
162 10
163 200
164 100
165 50
166 10
167 10
168 10
169 200
170 10
171 200
172 50
173 10
174 200
175 200
176 10
177 10
178 200
179 200
180 100
181 100
182 50
183 10
184 200
185 100
186 50
187 10
188 10
189 10
190 200
191 100
192 50
193 10
194 10
195 100
196 10
197 10
198 10
199 10
200 100
201 50
202 10
203 10
204 10
205 10
206 200
207 200
208 10
209 10
210 10
211 100
212 10
213 10
214 10
215 10
216 100
217 50
218 10
219 10
220 10
221 10
222 200
223 50
224 10
225 10
226 10
227 10
228 200
229 100
230 10
231 10
232 10
233 200
234 200
235 50
236 10
237 10
238 10
239 100
240 50
241 10
242 10
243 10
244 10
245 200
246 200
247 10
248 10
249 100
250 10
251 10
252 10
253 200
254 100
255 50
256 10
257 10
258 10
259 10
260 200
261 50
262 10
263 10
264 10
265 200
266 10
267 10
268 200
269 10
270 10
271 10
272 10
273 200
274 200
275 50
276 200
277 50
278 10
279 10
280 200
281 10
282 10
283 100
284 50
285 10
286 200
287 50
288 10
289 10
290 100
291 50
292 200
293 200
294 50
295 10
296 10
297 10
298 200
299 200
300 200
301 100
302 10
303 10
304 200
305 10
306 10
307 10
308 200
309 100
310 10
311 200
312 50
313 10
314 10
315 200
316 100
317 10
318 10
319 200
320 200
321 50
322 10
323 10
324 10
325 200
326 200
327 10
328 10
329 10
330 10
331 200
332 200
333 50
334 10
335 10
336 10
337 10
338 100
339 50
340 100
341 50
342 10
343 10
344 10
345 200
346 100
347 10
348 10
349 200
350 200
351 50
352 10
353 10
354 200
355 200
356 50
357 10
358 10
359 200
360 100
361 50
362 10
363 10
364 10
365 200
366 200
367 50
368 200
369 200
370 10
371 10
372 200
373 50
374 10
375 10
376 200
377 200
378 10
379 100
380 50
381 10
382 10
383 200
384 200
385 10
386 10
387 10
388 10
389 200
390 100
391 50
392 10
393 10
394 200
395 50
396 10
397 200
398 100
399 50
400 10
401 10
402 100
403 50
404 10
405 10
406 10
407 10
408 200
409 50
410 10
411 200
412 200
413 50
414 10
415 10
416 10
417 10
418 200
419 100
420 10
421 10
422 10
423 200
424 100
425 50
426 200
427 200
428 10
429 200
430 100
431 50
432 10
433 10
434 200
435 200
436 50
437 10
438 10
439 10
440 200
441 200
442 50
443 10
444 10
DEPOT_SECTION
1
-1
EOF