Normalized Data/p03_7_normalized_splitx10_0.sol
443 -4 2 1 270 271 269 267 268 382 384 385 383 387 386 -5 3 6 71 72 73 330 332 335 336 331 334 333 305 303 304 306 59 -8 348 349 352 351 350 353 354 357 356 355 -9 10 281 280 279 179 178 177 61 60 -12 11 7 308 309 307 300 301 302 299 337 338 -13 15 14 88 86 87 85 84 89 90 134 -21 19 17 16 20 22 18 395 394 393 432 429 431 428 -30 175 173 176 414 416 410 412 413 415 411 263 259 262 261 260 -41 40 272 273 274 442 441 440 443 439 -53 54 51 312 313 310 311 33 37 36 34 35 155 157 156 77 74 -55 52 422 424 423 127 126 128 278 276 277 275 -57 56 266 265 264 358 359 360 362 361 371 -58 434 433 436 438 437 435 297 298 -62 66 64 63 67 65 170 172 171 -69 68 70 390 392 391 388 389 404 401 405 406 -75 76 78 141 198 194 196 197 195 130 131 129 232 237 235 234 236 233 254 256 255 -80 79 83 81 82 325 327 328 326 324 329 370 367 368 369 -104 109 108 110 106 107 105 375 376 377 396 -118 120 119 117 136 138 137 139 23 26 24 25 212 210 213 214 211 228 -122 123 124 125 121 32 31 29 27 28 174 -133 135 407 409 408 206 207 205 208 209 -142 140 43 45 44 42 46 417 419 420 421 418 -148 144 147 145 146 143 218 220 216 219 217 215 314 316 315 317 -150 152 153 154 151 149 191 190 189 193 192 -159 160 158 161 245 246 244 247 248 249 251 250 286 285 287 288 -162 164 230 229 227 231 38 39 346 203 199 -167 163 166 165 345 344 347 322 321 323 320 318 319 201 202 200 204 -181 182 180 169 168 283 282 284 243 238 242 241 240 239 97 95 96 363 -187 184 188 186 183 185 426 425 427 -223 221 225 222 226 224 289 290 98 103 99 102 101 100 340 339 342 343 341 -258 257 253 252 115 113 114 112 116 111 92 93 94 91 430 -365 366 364 47 48 49 50 397 400 399 398 -372 373 374 132 292 294 296 295 293 291 378 381 380 379 402 403 0 





OBJ=
3098.883
BEST_KNOWN=
0.000